SAT
-7 -75 1 -20 50 -61 38 54 -74 -12 -45 -22 -65 -63 6 44 -14 -46 66 25 -41 -18 53 -35 24 -27 56 3 -26 8 72 -23 -11 13 52 -36 -29 -68 47 -69 48 4 73 -34 -67 40 -62 16 64 -43 32 59 5 37 -49 -15 -31 42 -39 71 57 10 -60 21 55 -70 -2 -30 28 -33 -17 58 51 9 -19 0
